(set-info :smt-lib-version 2.6)
(set-info :category "crafted")
(set-logic QF_FFA)
(define-sort FF0 () (_ FiniteField 52435875175126190479447740508185965837690552500527637822603658699938581184513))
(declare-fun return_n7_alt () FF0)
(declare-fun x7_n3_alt () FF0)
(declare-fun mul_n14_alt () FF0)
(declare-fun x6_n5_alt () FF0)
(declare-fun mul_n13_alt () FF0)
(declare-fun x5_n0_alt () FF0)
(declare-fun mul_n12_alt () FF0)
(declare-fun x4_n1_alt () FF0)
(declare-fun mul_n11_alt () FF0)
(declare-fun x3_n6_alt () FF0)
(declare-fun mul_n10_alt () FF0)
(declare-fun x2_n8_alt () FF0)
(declare-fun mul_n9_alt () FF0)
(declare-fun x1_n2_alt () FF0)
(declare-fun x0_n4_alt () FF0)
(declare-fun return_n7 () FF0)
(declare-fun x7_n3 () FF0)
(declare-fun mul_n14 () FF0)
(declare-fun x6_n5 () FF0)
(declare-fun mul_n13 () FF0)
(declare-fun x5_n0 () FF0)
(declare-fun mul_n12 () FF0)
(declare-fun x4_n1 () FF0)
(declare-fun mul_n11 () FF0)
(declare-fun x3_n6 () FF0)
(declare-fun mul_n10 () FF0)
(declare-fun x2_n8 () FF0)
(declare-fun mul_n9 () FF0)
(declare-fun x1_n2 () FF0)
(declare-fun x0_n4 () FF0)
(assert 
  (let ((let0 return_n7_alt))
  (let ((let1 x7_n3_alt))
  (let ((let2 mul_n14_alt))
  (let ((let3 (ff.mul let2 let1)))
  (let ((let4 (= let3 let0)))
  (let ((let5 x6_n5_alt))
  (let ((let6 mul_n13_alt))
  (let ((let7 (ff.mul let6 let5)))
  (let ((let8 (= let7 let2)))
  (let ((let9 x5_n0_alt))
  (let ((let10 mul_n12_alt))
  (let ((let11 (ff.mul let10 let9)))
  (let ((let12 (= let11 let6)))
  (let ((let13 x4_n1_alt))
  (let ((let14 mul_n11_alt))
  (let ((let15 (ff.mul let14 let13)))
  (let ((let16 (= let15 let10)))
  (let ((let17 x3_n6_alt))
  (let ((let18 mul_n10_alt))
  (let ((let19 (ff.mul let18 let17)))
  (let ((let20 (= let19 let14)))
  (let ((let21 x2_n8_alt))
  (let ((let22 mul_n9_alt))
  (let ((let23 (ff.mul let22 let21)))
  (let ((let24 (= let23 let18)))
  (let ((let25 x1_n2_alt))
  (let ((let26 x0_n4_alt))
  (let ((let27 (ff.mul let26 let25)))
  (let ((let28 (= let27 let22)))
  (let ((let29 (and let28 let24 let20 let16 let12 let8 let4)))
  (let ((let30 return_n7))
  (let ((let31 x7_n3))
  (let ((let32 mul_n14))
  (let ((let33 (ff.mul let32 let31)))
  (let ((let34 (= let33 let30)))
  (let ((let35 x6_n5))
  (let ((let36 mul_n13))
  (let ((let37 (ff.mul let36 let35)))
  (let ((let38 (= let37 let32)))
  (let ((let39 x5_n0))
  (let ((let40 mul_n12))
  (let ((let41 (ff.mul let40 let39)))
  (let ((let42 (= let41 let36)))
  (let ((let43 x4_n1))
  (let ((let44 mul_n11))
  (let ((let45 (ff.mul let44 let43)))
  (let ((let46 (= let45 let40)))
  (let ((let47 x3_n6))
  (let ((let48 mul_n10))
  (let ((let49 (ff.mul let48 let47)))
  (let ((let50 (= let49 let44)))
  (let ((let51 x2_n8))
  (let ((let52 mul_n9))
  (let ((let53 (ff.mul let52 let51)))
  (let ((let54 (= let53 let48)))
  (let ((let55 x1_n2))
  (let ((let56 x0_n4))
  (let ((let57 (ff.mul let56 let55)))
  (let ((let58 (= let57 let52)))
  (let ((let59 (and let58 let54 let50 let46 let42 let38 let34)))
  (let ((let60 (= let30 let0)))
  (let ((let61 (not let60)))
  (let ((let62 (= let35 let5)))
  (let ((let63 (= let43 let13)))
  (let ((let64 (= let39 let9)))
  (let ((let65 (= let51 let21)))
  (let ((let66 (= let47 let17)))
  (let ((let67 (= let55 let25)))
  (let ((let68 (= let56 let26)))
  (let ((let69 (= let31 let1)))
  (let ((let70 (and let69 let68 let67 let66 let65 let64 let63 let62)))
  (let ((let71 (and let70 let61 let59 let29)))
  let71
))))))))))))))))))))))))))))))))))))))))))))))))))))))))))))))))))))))))
)
(check-sat)
